NAME : sim49.78360.tour
COMMENT : Length = 78360
COMMENT : Found by LKH [Keld Helsgaun] Sun Sep 16 18:16:38 2018
TYPE : TOUR
DIMENSION : 49
TOUR_SECTION
1
7
11
45
13
29
15
38
24
36
6
48
20
12
39
28
9
22
27
21
5
17
10
41
35
34
47
42
33
25
49
32
40
37
4
26
43
30
31
23
8
18
44
3
2
14
46
16
19
-1
EOF
